<number of tasks>
50

<cycle time>
1000

<order strength>
0.602


<task times>
1 590
2 691
3 443
4 573
5 385
6 449
7 513
8 446
9 621
10 586
11 515
12 395
13 276
14 537
15 328
16 522
17 587
18 510
19 441
20 377
21 400
22 385
23 604
24 293
25 558
26 525
27 421
28 340
29 534
30 632
31 279
32 662
33 407
34 541
35 412
36 565
37 507
38 701
39 477
40 275
41 506
42 649
43 485
44 380
45 421
46 646
47 566
48 482
49 683
50 471

<precedence relations>
1,5
2,8
3,6
3,7
3,16
3,17
4,9
4,10
5,12
6,13
7,14
8,15
9,11
9,15
9,16
9,17
10,17
11,18
12,19
13,20
14,20
15,20
15,21
15,27
16,20
16,21
16,27
17,20
17,21
17,27
18,22
19,23
20,24
20,25
21,24
21,25
22,27
23,26
24,28
24,30
25,28
25,29
25,30
26,31
27,36
27,41
27,50
28,31
28,32
28,33
29,34
29,39
30,32
30,33
30,34
30,45
31,35
31,36
31,37
31,38
31,39
32,36
32,37
32,38
32,39
32,49
33,36
33,38
33,39
34,36
34,38
35,40
38,41
39,42
39,50
40,45
41,43
42,44
42,46
43,47
44,48
45,49
45,50

<end>
